99 100
26 25 1
26 9 1
17 17 1
6 10 1
13 30 1
34 27 1
6 32 1
19 17 1
34 3 1
25 20 1
10 7 1
20 17 1
28 11 1
20 33 1
25 32 1
17 4 1
14 27 1
14 15 1
24 34 1
29 22 1
23 34 1
17 31 1
27 20 1
17 21 1
28 30 1
11 20 1
30 10 1
25 31 1
14 21 1
28 35 1
6 34 1
1 25 1
10 28 1
6 4 1
8 31 1
12 23 1
26 11 1
34 4 1
33 20 1
30 21 1
10 14 2
4 19 1
19 32 1
6 26 1
29 20 1
28 10 1
21 5 1
4 23 1
21 25 1
21 21 1
34 28 1
34 8 1
5 4 1
13 35 1
31 27 1
8 24 1
11 9 1
13 14 1
32 11 1
30 20 1
14 2 1
4 35 1
32 33 1
35 28 1
32 26 1
19 13 1
5 20 1
9 20 1
26 31 1
30 15 1
5 15 1
17 15 1
5 12 1
21 12 1
28 1 1
34 10 1
22 12 1
24 25 1
12 11 1
7 13 1
3 15 1
11 16 1
3 8 1
28 19 1
35 22 1
22 2 1
30 26 1
9 30 1
25 34 1
17 34 1
2 4 1
13 32 1
23 10 1
15 16 1
21 33 1
14 23 1
12 29 1
13 1 1
24 3 1
40 40 
40 40 
40 40 
40 40 
40 40 
40 40 
40 40 
40 40 
40 40 
40 40 
40 40 
40 40 
40 40 
40 40 
40 40 
40 40 
40 40 
40 40 
40 40 
40 40 
40 40 
40 40 
40 40 
40 40 
40 40 
40 40 
40 40 
40 40 
40 40 
40 40 
40 40 
40 40 
40 40 
40 40 
40 40 
40 40 
40 40 
40 40 
40 40 
40 40 
40 40 
40 40 
40 40 
40 40 
40 40 
40 40 
40 40 
40 40 
40 40 
40 40 
40 40 
40 40 
40 40 
40 40 
40 40 
40 40 
40 40 
40 40 
40 40 
40 40 
40 40 
40 40 
40 40 
40 40 
40 40 
40 40 
40 40 
40 40 
40 40 
40 40 
40 40 
40 40 
40 40 
40 40 
40 40 
40 40 
40 40 
40 40 
40 40 
40 40 
40 40 
40 40 
40 40 
40 40 
40 40 
40 40 
40 40 
40 40 
40 40 
40 40 
40 40 
40 40 
40 40 
40 40 
40 40 
40 40 
40 40 
40 40 
40 40 
40 40 
